3	25
567	242	850	707	693	820	603	393	702	232	526	537	110	459	643	874	70	20	5	752	923	179	15	397	731	
976	513	232	572	1000	633	98	636	565	799	206	509	841	716	19	717	860	242	300	883	719	835	507	211	996	
2431	2431	2431	
